(set-logic ALL)
(declare-fun var0 () String)
(assert (str.in_re var0 (re.++ (re.+ (re.+ (str.to_re "00"))) (re.++ (re.union (re.* (str.to_re "1")) (re.* (str.to_re "222"))) (re.++ (re.* (re.* (str.to_re "3"))) (re.++ (re.* (re.union (str.to_re "444") (str.to_re "55"))) (re.++ (re.union (re.* (str.to_re "6")) (re.* (str.to_re "7"))) (re.++ (re.* (re.* (str.to_re "888"))) (re.++ (re.+ (re.union (str.to_re "99") (str.to_re "aaa"))) (re.++ (re.union (re.union (str.to_re "b") (str.to_re "ccc")) (re.union (str.to_re "dd") (str.to_re "ee"))) (re.++ (re.union (re.union (str.to_re "ff") (str.to_re "g")) (re.union (str.to_re "hh") (str.to_re "i"))) (re.++ (re.union (re.+ (str.to_re "jj")) (re.+ (str.to_re "kk"))) (re.++ (re.+ (re.union (str.to_re "ll") (str.to_re "m"))) (re.++ (re.* (re.+ (str.to_re "n"))) (re.++ (re.* (re.+ (str.to_re "ooo"))) (re.++ (re.union (re.* (str.to_re "p")) (re.* (str.to_re "qq"))) (re.++ (re.union (re.+ (str.to_re "rrr")) (re.+ (str.to_re "ss"))) (re.++ (re.* (re.+ (str.to_re "ttt"))) (re.++ (re.+ (re.* (str.to_re "u"))) (re.++ (re.union (re.* (str.to_re "vv")) (re.* (str.to_re "www"))) (re.++ (re.+ (re.+ (str.to_re "xx"))) (re.++ (re.union (re.union (str.to_re "yyy") (str.to_re "zzz")) (re.union (str.to_re "A") (str.to_re "BB"))) (re.++ (re.* (re.* (str.to_re "CC"))) (re.++ (re.* (re.* (str.to_re "DDD"))) (re.+ (re.union (str.to_re "EEE") (str.to_re "FF")))))))))))))))))))))))))))
(check-sat)